\* Minimize *\
Maximize
MaximiserValeur: 2 produits__bouteille + 5 produits__caméra
 + 7 produits__figurine + 10 produits__trompette
Subject To
TailleSac: 7 produits__bouteille + 12 produits__caméra + 4 produits__figurine
 + 10 produits__trompette <= 15
Binaries
produits__bouteille
produits__caméra
produits__figurine
produits__trompette
End
